Version identifier: 22.1.1.0 | 2022-11-28 | 9160aff4d
CPXPARAM_ClockType                               1
CPXPARAM_Read_DataCheck                          1
CPXPARAM_Threads                                 1
CPXPARAM_Simplex_Tolerances_Optimality           1.0000000000000001e-09
CPXPARAM_TimeLimit                               7200
CPXPARAM_MIP_Tolerances_AbsMIPGap                0
CPXPARAM_MIP_Tolerances_MIPGap                   0
CPXPARAM_MIP_Tolerances_Integrality              0
Tried aggregator 1 time.
MIQP Presolve eliminated 3837 rows and 9 columns.
MIQP Presolve modified 1938 coefficients.
Reduced MIQP has 25554 rows, 8991 columns, and 78756 nonzeros.
Reduced MIQP has 8541 binaries, 450 generals, 0 SOSs, and 0 indicators.
Reduced MIQP objective Q matrix has 450 nonzeros.
Presolve time = 0.08 sec. (53.17 ticks)
Probing time = 0.01 sec. (3.80 ticks)
Tried aggregator 1 time.
MIQP Presolve eliminated 1500 rows and 0 columns.
Reduced MIQP has 24054 rows, 8991 columns, and 74256 nonzeros.
Reduced MIQP has 8541 binaries, 450 generals, 0 SOSs, and 0 indicators.
Reduced MIQP objective Q matrix has 450 nonzeros.
Presolve time = 0.08 sec. (47.81 ticks)
Classifier predicts products in MIQP should be linearized.
Probing time = 0.01 sec. (3.65 ticks)
Clique table members: 11787.
MIP emphasis: balance optimality and feasibility.
MIP search method: dynamic search.
Parallel mode: none, using 1 thread.
Root relaxation solution time = 31.18 sec. (62902.54 ticks)

        Nodes                                         Cuts/
   Node  Left     Objective  IInf  Best Integer    Best Bound    ItCnt     Gap

      0     0    10000.0000  4917                  10000.0000        9         
      0     0    10000.0000  6615                  Cuts: 2108   585376         
      0     0    10000.0000  6902                  Cuts: 4422   602901         
Heuristic still looking.
Heuristic still looking.
Heuristic still looking.
      0     2    10000.0000  6644                  10000.0000   602901         
Elapsed time = 6562.95 sec. (2310783.73 ticks, tree = 0.01 MB, solutions = 0)

Clique cuts applied:  229
Implied bound cuts applied:  1
Zero-half cuts applied:  136
Gomory fractional cuts applied:  21

Root node processing (before b&c):
  Real time             = 6562.93 sec. (2310772.28 ticks)
Sequential b&c:
  Real time             =  637.12 sec. (200036.21 ticks)
                          ------------
Total (root+branch&cut) = 7200.05 sec. (2510808.49 ticks)
Solution is infeasible.

---------------------
@@@ MIP_time_limit_infeasible
Traceback (most recent call last):
  File "/scratch/scherif/DiverseSAT-journal_sup/DiverseSAT_Supplementary_Experiments/experiment-1/cplex/jobs/../solvers/CPLEX-QP-SE.py", line 118, in <module>
    print(f">>> Benchmark {os.path.basename(cnf_file)} k {k} OPT {int(prob.solution.get_objective_value())}"
  File "/users/scherif/.local/lib/python3.9/site-packages/cplex/_internal/_subinterfaces.py", line 7211, in get_objective_value
    return CPX_PROC.getobjval(self._env._e, self._cplex._lp)
  File "/users/scherif/.local/lib/python3.9/site-packages/cplex/_internal/_procedural.py", line 2055, in getobjval
    check_status(env, status)
  File "/users/scherif/.local/lib/python3.9/site-packages/cplex/_internal/_procedural.py", line 249, in __call__
    raise CplexSolverError(error_string, env, status)
cplex.exceptions.errors.CplexSolverError: CPLEX Error  1217: No solution exists.
